17	4
19	23	24	17	
0	0	0	0	0	3	2	3	4	
8	0	0	2	1	1	6	
9	1	8	1	6	2	5	7	
1	2	1	4	6	1	17	
4	4	6	0	9	1	12	
100	7	9	0	0	2	9	17	
200	8	4	7	0	2	8	16	
75	5	6	2	6	2	10	15	
75	0	6	7	7	2	11	13	
225	9	9	0	0	2	17	17	
150	2	0	5	0	1	16	
75	3	2	6	6	2	14	17	
5	6	4	9	2	3	16	17	17	
4	3	0	8	5	2	17	17	
9	3	5	5	9	1	17	
5	2	7	8	0	2	17	17	
0	0	0	0	0	0	
